20
5
518223
0
0
34 35 31 35 31
1
0
48 48 46 49 46
2
0
49 46 51 49 48
3
0
45 43 45 44 42
4
0
48 50 48 48 52
5
0
63 58 62 59 62
6
0
49 48 55 53 53
7
0
45 46 43 45 49
8
0
52 54 57 59 53
9
0
44 43 46 43 43
10
0
50 49 50 48 49
11
0
44 43 42 45 44
12
0
52 54 47 52 54
13
0
56 56 55 55 57
14
0
77 77 85 77 79
15
0
57 58 57 59 60
16
0
34 35 33 36 37
17
0
44 46 43 46 45
18
0
57 59 58 60 61
19
0
48 54 55 51 51
